\ This file has been generated by DOcplex
\ ENCODING=ISO-8859-1
\Problem name: random_problem.lp

Minimize
 obj: 5.170489585044 x0 + 2.585244792522 x1 + 1.292622396261 x2
      - 32.516485889187 x3 - 16.258242944593 x4 - 8.129121472297 x5 + [
      67.861971814980 x0^2 + 67.861971814980 x0*x1 + 33.930985907490 x0*x2
      + 35.421595228681 x0*x3 + 17.710797614341 x0*x4 + 8.855398807170 x0*x5
      + 16.965492953745 x1^2 + 16.965492953745 x1*x2 + 17.710797614341 x1*x3
      + 8.855398807170 x1*x4 + 4.427699403585 x1*x5 + 4.241373238436 x2^2
      + 8.855398807170 x2*x3 + 4.427699403585 x2*x4 + 2.213849701793 x2*x5
      + 26.657327921475 x3^2 + 26.657327921475 x3*x4 + 13.328663960737 x3*x5
      + 6.664331980369 x4^2 + 6.664331980369 x4*x5 + 1.666082995092 x5^2 ]/2
Subject To
 c0: 4 x0 + 2 x1 + x2 + 4 x3 + 2 x4 + x5 = 7

Bounds
 0 <= x0 <= 1
 0 <= x1 <= 1
 0 <= x2 <= 1
 0 <= x3 <= 1
 0 <= x4 <= 1
 0 <= x5 <= 1

Binaries
 x0 x1 x2 x3 x4 x5
End
